c 117_4_checker_5cl.cnf
c
c field = 117
c formula set type = 4_checker_5cl
c
p cnf 5 6
230 
234 
236 
238 
-228 
231 
235 
237 
239 
-229 
200 
264 
296 
328 
-168 
201 
265 
297 
329 
-169 
148 
176 
204 
260 
-288 
149 
177 
205 
261 
-289 
